Set parameter Username
Academic license - for non-commercial use only - expires 2024-10-29
Set parameter LazyConstraints to value 1
Set parameter TimeLimit to value 600
Gurobi Optimizer version 10.0.0 build v10.0.0rc2 (linux64)

CPU model: AMD FX(tm)-4300 Quad-Core Processor, instruction set [SSE2|AVX]
Thread count: 2 physical cores, 4 logical processors, using up to 4 threads

Optimize a model with 413 rows, 100 columns and 446 nonzeros
Model fingerprint: 0x3644d73e
Variable types: 0 continuous, 100 integer (100 binary)
Coefficient statistics:
  Matrix range     [1e+00, 1e+00]
  Objective range  [1e+00, 1e+01]
  Bounds range     [1e+00, 1e+00]
  RHS range        [1e+00, 1e+00]
Presolve removed 401 rows and 1 columns
Presolve time: 0.00s
Presolved: 12 rows, 99 columns, 45 nonzeros
Variable types: 0 continuous, 99 integer (99 binary)

Root relaxation: objective 2.900000e+01, 12 iterations, 0.00 seconds (0.00 work units)

    Nodes    |    Current Node    |     Objective Bounds      |     Work
 Expl Unexpl |  Obj  Depth IntInf | Incumbent    BestBd   Gap | It/Node Time

     0     0   29.00000    0    -          -   29.00000      -     -    0s
     0     0   30.00000    0    -          -   30.00000      -     -    0s
     0     0   30.00000    0    -          -   30.00000      -     -    0s
     0     0   30.00000    0    -          -   30.00000      -     -    0s
     0     0   31.00000    0    -          -   31.00000      -     -    0s
     0     0   36.00000    0    -          -   36.00000      -     -    0s
     0     0   36.00000    0    -          -   36.00000      -     -    0s
     0     0   36.00000    0    -          -   36.00000      -     -    0s
     0     0   36.00000    0    -          -   36.00000      -     -    0s
     0     0   36.50000    0    3          -   36.50000      -     -    0s
     0     0   43.00000    0    -          -   43.00000      -     -    0s
     0     0   43.00000    0    -          -   43.00000      -     -    0s
H    0     0                     104.0000000   43.50000  58.2%     -    0s
     0     0   43.50000    0    5  104.00000   43.50000  58.2%     -    0s
     0     0   50.00000    0    -  104.00000   50.00000  51.9%     -    0s
     0     0   50.00000    0    -  104.00000   50.00000  51.9%     -    0s
H    0     0                      86.0000000   50.00000  41.9%     -    0s
     0     0   50.00000    0    6   86.00000   50.00000  41.9%     -    0s
     0     0   50.00000    0    -   86.00000   50.00000  41.9%     -    0s
     0     0   53.00000    0    -   86.00000   53.00000  38.4%     -    0s
     0     0   54.00000    0    -   86.00000   54.00000  37.2%     -    0s
H    0     0                      71.0000000   54.00000  23.9%     -    0s
     0     0   54.00000    0    5   71.00000   54.00000  23.9%     -    0s
H    0     2                      65.0000000   54.00000  16.9%     -    0s
     0     2   55.00000    0    8   65.00000   55.00000  15.4%     -    0s
H    1     4                      62.0000000   55.33333  10.8%   0.0    0s
H  243    88                      61.0000000   59.66667  2.19%   9.2    3s

Cutting planes:
  User: 71
  Gomory: 1
  Lazy constraints: 92

Explored 353 nodes (2670 simplex iterations) in 3.45 seconds (0.09 work units)
Thread count was 4 (of 4 available processors)

Solution count 6: 61 62 65 ... 104

Optimal solution found (tolerance 1.00e-04)
Best objective 6.100000000000e+01, best bound 6.100000000000e+01, gap 0.0000%

User-callback calls 1095, time in user-callback 3.26 sec
